50
18112

977 732
635 174
757 417
611 822
351 876
790 384
545 147
200 40
867 411
472 575
740 213
542 167
709 753
748 845
825 249
919 896
241 790
903 661
450 917
329 362
403 657
542 852
657 514
187 977
673 713
539 548
713 481
420 477
576 347
273 231
13 473
22 136
388 308
3 120
544 89
635 738
596 816
192 428
62 805
524 875
420 163
403 987
50 638
106 442
438 183
642 313
323 682
768 990
953 922
229 264
